44 57 93 95 55 21 82 41 29 24 22 33 77 20 71 15 83 50 26 92 30 91 48 18 2 9 13 99 3 73 52 53 87 25 37 28 61 19 39 11 38 6 78 49 97 98 12 31 42 27 62 4 67 75 7 60 1 88 43 86 63 10 68 72 8 47 84 74 76 35 96 70 0 23 56 64 58 85 89 90 45 69 40 81 16 34 66 65 79 36 46 32 51 59 94 17 14 54 80 5 

